
#(C) 2022 by FIZ Karlsruhe - Leibniz Institute for Information Infrastructure.  All rights reserved.
data_42652-ICSD
_database_code_ICSD 42652
_audit_creation_date 2002-04-01
_audit_update_record 2006-04-01
_chemical_name_common 'Cobalt tantalum sulfide (0.33/1/2)'
_chemical_formula_structural 'Co0.33 Ta S2'
_chemical_formula_sum 'Co0.33 S2 Ta1'
_chemical_name_structure_type Edgarite#Fe0.33NbS2
_exptl_crystal_density_diffrn 7.67
_citation_title
'Magnetic and crystallographic structures of Mex Nb S2 and Mex Ta S2'
loop_
_citation_id
_citation_journal_full
_citation_year
_citation_journal_volume
_citation_page_first
_citation_page_last
_citation_journal_id_ASTM
primary 'Journal of Solid State Chemistry' 1971 3 154 160 JSSCBI
loop_
_citation_author_citation_id
_citation_author_name
primary 'van Laar, B.'
primary 'Rietveld, H.M.'
primary 'Ijdo, D.J.W.'
_cell_length_a 5.7393(8)
_cell_length_b 5.7393(8)
_cell_length_c 11.9329(19)
_cell_angle_alpha 90.
_cell_angle_beta 90.
_cell_angle_gamma 120.
_cell_volume 340.4
_cell_formula_units_Z 6
_space_group_name_H-M_alt 'P 63 2 2'
_space_group_IT_number 182
loop_
_space_group_symop_id
_space_group_symop_operation_xyz
1 'x, x-y, -z+1/2'
2 '-x+y, y, -z+1/2'
3 '-y, -x, -z+1/2'
4 'x-y, x, z+1/2'
5 'y, -x+y, z+1/2'
6 '-x, -y, z+1/2'
7 '-x, -x+y, -z'
8 'x-y, -y, -z'
9 'y, x, -z'
10 '-x+y, -x, z'
11 '-y, x-y, z'
12 'x, y, z'
loop_
_atom_type_symbol
_atom_type_oxidation_number
Ta3+ 3.42
Co2+ 2
S2- -2
loop_
_atom_site_label
_atom_site_type_symbol
_atom_site_symmetry_multiplicity
_atom_site_Wyckoff_symbol
_atom_site_fract_x
_atom_site_fract_y
_atom_site_fract_z
_atom_site_B_iso_or_equiv
_atom_site_occupancy
Ta1 Ta3+ 2 a 0 0 0 . 1.
Ta2 Ta3+ 4 f 0.3333 0.6667 0.9978(7) . 1.
Co1 Co2+ 2 c 0.3333 0.6667 0.25 . 1.
S1 S2- 12 i 0.6659(42) 0.0024(33) 0.1334(3) . 1.
#End of TTdata_42652-ICSD